c --- [ banner ] -------------------------------------------------------------
c 
c CaDiCaL Radically Simplified CDCL SAT Solver
c Copyright (c) 2016-2019 Armin Biere, JKU Linz
c 
c Version 1.2.1 92d72896c49b30ad2d50c8e1061ca0681cd23e60
c g++ (GCC) 8.3.1 20190223 (Red Hat 8.3.1-2) -Wall -Wextra -O3 -DNDEBUG
c Mon Dec 9 12:07:29 EST 2019 Linux istanbul 5.0.16-100.fc28.x86_64 x86_64
c 
c --- [ limit ] --------------------------------------------------------------
c 
c setting time limit to 129600 seconds real time
c 
c --- [ parsing input ] ------------------------------------------------------
c 
c reading DIMACS file from './cnfs/Haystacks-ext-12_c18.cnf'
c opening file to read './cnfs/Haystacks-ext-12_c18.cnf'
c found 'p cnf 1728 19526' header
c parsed 19526 clauses in 0.01 seconds process time
c closing file './cnfs/Haystacks-ext-12_c18.cnf'
c after reading 253978 bytes 0.2 MB
c 
c --- [ options ] ------------------------------------------------------------
c 
c   --profile=4                    (different from default '2')
c 
c --- [ solving ] ------------------------------------------------------------
c 
c time measured in process time since initialization
c 
c  seconds  reductions  redundant  irredundant
c         MB    restarts       trail     variables
c          level   conflicts       glue       remaining
c 
c *  0.01  5  0 0   0    0    0  0% 0 19526 1728 100%
c {  0.01  5  0 0   0    0    0  0% 0 19526 1728 100%
c -  0.03  6 20 1   7  300  248 23% 9 19526 1728 100%
c -  0.05  6 25 2  37  900  640 20% 10 19526 1728 100%
c }  0.05  6 22 2  37 1000  721 19% 10 19526 1728 100%
c [  0.05  6  0 2  37 1000  721  0% 0 19526 1728 100%
c O  0.05  6 10 2  37 1002  723 11% 5 19526 1728 100%
c -  0.08  6 15 3  37 1801  872 10% 12 19526 1728 100%
c ]  0.13  6 15 3  38 3001 1670 10% 12 19526 1728 100%
c {  0.13  6 22 3  38 3001 1670 19% 10 19526 1728 100%
c -  0.13  6 22 4  38 3001 1264 19% 10 19526 1728 100%
c F  0.13  6 22 4  38 3003 1266 18% 10 19526 1728 100%
c -  0.19  7 15 5 109 4502 1531 12% 10 19526 1728 100%
c d  0.21  7 14 5 120 5001 1905 12% 10 19524 1726 100%
c #  0.26  7 13 5 139 6005 2700 11% 9 19524 1726 100%
c -  0.27  7 12 6 177 6302 2110 11% 10 19524 1726 100%
c s  0.31  7 12 6 213 6997 2649 11% 10 19524 1726 100%
c v  0.31  7 12 6 213 6997 2649 11% 10 19513 1726 100%
c w  0.36  7 12 6 213 6997 2647 11% 10 19513 1726 100%
c t  0.37  7 12 6 213 6997 2647 11% 10 18787 1726 100%
c 
c  seconds  reductions  redundant   irredundant
c         MB    restarts       trail      variables
c          level   conflicts       glue        remaining
c 
c e  0.40  7 12 6 213 6997   77 11% 10 17061 1463 85%
c s  0.40  7 12 6 213 6997   74 11% 10 17061 1463 85%
c }  0.41  6 12 6 213 7001   78 10% 10 17061 1463 85%
c [  0.41  6 15 6 213 7001   78 11% 12 17061 1463 85%
c -  0.45  7 17 7 214 8404 1001 10% 14 17061 1463 85%
c I  0.49  7 16 7 215 10006 2015 10% 13 17061 1463 85%
c -  0.52  8 104 8 216 10805 2070 22% 16 17061 1463 85%
c -  0.60  8 171 9 218 13506 2440 38% 20 17061 1463 85%
c ]  0.65  8 199 9 218 15002 3397 45% 20 17061 1463 85%
c {  0.65  8 12 9 218 15002 3397 10% 10 17061 1463 85%
c B  0.67  8 13 9 219 15008 3402 58% 10 17061 1463 85%
c -  0.71  8 12 10 293 16507 2835 10% 10 17061 1463 85%
c -  0.84  9 11 11 472 19807 3808 10% 9 17061 1463 85%
c W  0.91  9 11 11 551 21010 4752 10% 10 17061 1463 85%
c s  0.93  9 12 11 590 21174 4758 10% 10 17061 1463 85%
c w  1.04  9 12 11 590 21174 4740 10% 10 17061 1463 85%
c -  1.13  8 14 12 794 23407 5027  9% 10 17061 1463 85%
c -  1.30  9 16 13 952 27308 4950  9% 10 17061 1463 85%
c F  1.33  9 16 13 987 28011 5443  9% 10 17061 1463 85%
c }  1.45  9 15 13 1205 31003 7713  9% 10 17061 1463 85%
c 
c  seconds   reductions     redundant   irredundant
c         MB      restarts         trail      variables
c           level      conflicts       glue        remaining
c 
c [  1.45  9 199 13 1205 31003 7713 45% 20 17061 1463 85%
c -  1.46  8 188 14 1205 31509 5331 43% 19 17061 1463 85%
c -  1.62  9 117 15 1208 36009 5479 30% 16 17061 1463 85%
c B  1.62  9 117 15 1208 36014 5483 30% 16 17061 1463 85%
c -  1.79  8 126 16 1211 40810 5020 32% 17 17061 1463 85%
c s  1.87  8 117 16 1212 42439 6069 30% 17 17061 1463 85%
c w  1.95  8 117 16 1212 42439 6059 30% 17 17061 1463 85%
c W  2.10  8 104 16 1212 45016 7855 27% 17 17061 1463 85%
c -  2.16 10 100 17 1213 45912 6069 26% 17 17061 1463 85%
c -  2.43 10 80 18 1213 51312 6817 21% 16 17061 1463 85%
c O  2.56 10 79 18 1215 55017 9371 20% 16 17061 1463 85%
c -  2.62 10 77 19 1216 57013 6515 22% 16 17061 1463 85%
c ]  2.84 10 67 19 1220 63005 10237 19% 16 17061 1463 85%
c {  2.84 10 15 19 1220 63005 10237  9% 10 17061 1463 85%
c -  2.85 10 15 20 1220 63013 6199  9% 10 17061 1463 85%
c B  2.95 10 14 20 1303 66020 8526  9% 10 17061 1463 85%
c -  3.06 10 15 21 1494 69315 7031 10% 10 17061 1463 85%
c s  3.13 10 15 21 1582 70790 8059 10% 10 17061 1463 85%
c w  3.20 10 15 21 1582 70790 8048 10% 10 17061 1463 85%
c -  3.50 12 14 22 1844 75916 8248 10% 10 17061 1463 85%
c 
c  seconds  reductions     redundant   irredundant
c         MB     restarts         trail      variables
c          level      conflicts       glue        remaining
c 
c W  3.61 12 14 22 1972 78023 9921 10% 10 17061 1463 85%
c -  3.90 12 13 23 2260 82816 9265  9% 10 17061 1463 85%
c -  4.41 12 13 24 2631 90016 10629  9% 10 17061 1463 85%
c #  4.45 12 13 24 2701 91026 11418  9% 10 17061 1463 85%
c -  4.83 12 12 25 3126 97516 10605  9% 10 17061 1463 85%
c B  5.28 12 12 25 3562 105027 16383  9% 10 17061 1463 85%
c -  5.30 10 12 26 3585 105316 10478  9% 10 17061 1463 85%
c s  5.35 10 12 26 3630 106229 11009  9% 10 17061 1463 85%
c w  5.52 10 12 26 3630 106229 11006  9% 10 17061 1463 85%
c -  5.88 13 12 27 4149 113417 11616  9% 10 17061 1463 85%
c W  6.29 13 12 27 4602 120031 16782  9% 10 17061 1463 85%
c -  6.35 13 12 28 4688 121818 12437  9% 10 17061 1463 85%
c }  6.54 13 11 28 4925 127007 16503  9% 10 17061 1463 85%
c [  6.54 13 67 28 4925 127007 16503 19% 16 17061 1463 85%
c -  6.72 13 62 29 4926 130519 11926 18% 16 17061 1463 85%
c B  7.00 13 56 29 4930 136032 15645 17% 16 17061 1463 85%
c -  7.26 11 53 30 4932 139519 11137 16% 17 17061 1463 85%
c s  7.70 12 52 30 4933 148754 17600 15% 18 17061 1463 85%
c w  7.83 12 52 30 4933 148754 17594 15% 18 17061 1463 85%
c -  7.87 14 52 31 4933 148819 11420 15% 18 17061 1463 85%
c 
c  seconds  reductions       redundant   irredundant
c         MB     restarts           trail      variables
c          level      conflicts         glue        remaining
c 
c W  8.08 14 49 31 4934 153034 14360 15% 19 17061 1463 85%
c -  8.42 12 47 32 4934 158419 10455 14% 19 17061 1463 85%
c -  9.01 13 43 33 4936 168320 10503 14% 19 17061 1463 85%
c I  9.13 13 42 33 4937 171038 12149 14% 18 17061 1463 85%
c -  9.37 13 48 34 4941 178520 9892 14% 18 17061 1463 85%
c -  9.94 13 45 35 4948 189022 10923 14% 18 17061 1463 85%
c B 10.01 13 45 35 4948 190040 11586 14% 18 17061 1463 85%
c - 10.63 16 57 36 4949 199822 12317 17% 19 17061 1463 85%
c W 10.97 16 74 36 4956 210041 19297 24% 18 17061 1463 85%
c - 11.00 14 78 37 4956 210923 11713 25% 19 17061 1463 85%
c - 11.60 16 78 38 4963 222323 11041 25% 19 17061 1463 85%
c O 12.17 16 74 38 4964 231042 17473 23% 20 17061 1463 85%
c - 12.28 19 74 39 4965 234023 12925 25% 20 17061 1463 85%
c - 12.70 16 88 40 4965 246025 12225 29% 19 17061 1463 85%
c B 12.99 16 92 40 4966 253043 17153 31% 19 17061 1463 85%
c ] 13.05 16 99 40 4966 255009 18452 32% 19 17061 1463 85%
c { 13.05 16 11 40 4966 255009 18452  9% 10 17061 1463 85%
c - 13.20 16 12 41 5686 258325 13497  9% 10 17061 1463 85%
c - 13.82 19 12 42 6976 270925 14630  9% 10 17061 1463 85%
c F 14.14 19 12 42 8280 276045 18756  9% 11 17061 1463 85%
c 
c  seconds  reductions       redundant   irredundant
c         MB     restarts           trail      variables
c          level      conflicts         glue        remaining
c 
c - 14.42 16 12 43 8502 283827 15598  9% 11 17061 1463 85%
c - 15.14 19 12 44 8946 297027 16135  9% 10 17061 1463 85%
c B 15.40 19 12 44 9033 300049 18388  9% 10 17061 1463 85%
c - 15.84 16 14 45 11764 310527 17860  9% 11 17061 1463 85%
c - 16.62 20 15 46 15339 324327 18015  9% 12 17061 1463 85%
c W 16.67 20 15 46 15530 325050 18589  9% 12 17061 1463 85%
c p 16.97 20 16 46 16257 330011 22331  9% 12 17061 1463 85%
c - 17.34 16 16 47 16328 338428 17779  9% 12 17061 1463 85%
c # 18.00 16 16 47 16607 351051 27792  9% 11 17061 1463 85%
c - 18.07 18 17 48 16708 352828 19333  9% 11 17061 1463 85%
c - 18.71 18 16 49 16960 367532 18337  9% 11 17061 1463 85%
c B 19.41 18 15 49 17140 378052 26545  9% 11 17061 1463 85%
c - 19.59 22 16 50 17273 382534 20327  9% 11 17061 1463 85%
c p 19.97 22 16 50 17332 390013 26210  9% 11 17061 1463 85%
c - 20.41 23 16 51 17445 397836 20536  9% 11 17061 1463 85%
c s 20.46 23 16 51 17445 397836 20191  9% 11 17061 1463 85%
c w 20.60 23 16 51 17445 397836 20177  9% 11 17061 1463 85%
c W 20.98 23 16 51 17666 406054 26554  9% 11 17061 1463 85%
c - 21.38 18 17 52 17709 413436 22720  9% 11 17061 1463 85%
c - 22.25 23 17 53 17998 429338 23224  9% 11 17061 1463 85%
c 
c  seconds  reductions        redundant   irredundant
c         MB      restarts           trail      variables
c          level       conflicts         glue        remaining
c 
c F 22.59 23 17 53 18342 435055 27603  9% 10 17061 1463 85%
c - 23.03 18 17 54 18537 445539 23104  9% 10 17061 1463 85%
c p 23.59 18 16 54 18853 455013 30519  9% 10 17061 1463 85%
c - 24.02 21 16 55 19295 462045 23260  9% 10 17061 1463 85%
c B 24.21 21 16 55 19472 465056 25541  9% 10 17061 1463 85%
c - 25.16 21 15 56 20104 478845 23717  9% 10 17061 1463 85%
c - 26.55 22 14 57 21118 495945 25289  9% 10 17061 1463 85%
c W 26.56 22 14 57 21118 496057 25371  9% 10 17061 1463 85%
c i 27.93 22 14 57 21478 508589 35054  9% 10 17061 1462 85%
c } 28.02 22 14 57 21643 511011 36978  9% 10 17018 1462 85%
c [ 28.02 22 99 57 21643 511011 36978 32% 19 17018 1462 85%
c - 28.14 27 97 58 21643 513345 26563 31% 19 17018 1462 85%
c p 28.73 27 89 58 21643 525015 34458 29% 19 17018 1461 85%
c W 28.96 29 87 58 21643 528060 36456 28% 18 16976 1461 85%
c - 29.06 22 94 59 21643 531047 24555 30% 18 16976 1461 85%
c - 29.85 22 103 60 21650 549048 19843 31% 18 16976 1461 85%
c I 30.56 22 94 60 21657 561062 28476 29% 17 16976 1461 85%
c s 30.76 22 107 60 21658 565247 31542 30% 18 16976 1461 85%
c w 30.90 22 107 60 21658 565247 31525 30% 18 16976 1461 85%
c - 31.01 22 105 61 21658 567349 23591 29% 18 16976 1461 85%
c 
c  seconds  reductions        redundant   irredundant
c         MB      restarts           trail      variables
c          level       conflicts         glue        remaining
c 
c - 32.08 22 93 62 21668 585951 20168 26% 20 16976 1461 85%
c B 32.69 22 87 62 21672 595065 25332 25% 20 16976 1461 85%
c p 32.89 22 92 62 21673 600017 28701 26% 21 16976 1461 85%
c - 33.41 24 97 63 21674 604852 19616 27% 21 16976 1461 85%
c - 34.35 24 93 64 21677 624055 19723 27% 21 16976 1461 85%
c W 34.90 24 88 64 21681 630071 23698 26% 20 16976 1461 85%
c - 36.41 24 86 65 21688 643556 21722 25% 20 16976 1461 85%
c - 37.37 27 82 66 21696 663356 20677 24% 20 16976 1461 85%
c O 37.52 27 80 66 21697 666072 22583 24% 20 16976 1461 85%
c p 38.30 27 73 66 21704 680017 32144 22% 20 16976 1461 85%
c - 38.62 27 72 67 21704 683459 19879 22% 20 16976 1461 85%
c B 40.01 27 63 67 21706 703075 32594 20% 20 16976 1461 85%
c - 40.07 27 63 68 21706 703862 20942 19% 20 16976 1461 85%
c - 41.73 30 56 69 21706 724562 23127 17% 20 16976 1461 85%
c W 43.14 30 51 69 21707 741077 33979 16% 20 16976 1461 85%
c - 43.80 30 50 70 21707 745562 23946 16% 20 16976 1461 85%
c i 44.81 30 46 70 21707 757716 31065 15% 19 16976 1460 84%
c s 44.86 30 46 70 21707 757716 30500 15% 19 16976 1460 84%
c w 45.03 30 46 70 21707 757716 30486 15% 19 16973 1460 84%
c p 45.37 30 75 70 21707 765023 35811 21% 19 16934 1459 84%
c 
c  seconds  reductions        redundant   irredundant
c         MB      restarts           trail      variables
c          level       conflicts         glue        remaining
c 
c - 45.45 30 77 71 21707 766864 23988 22% 19 16893 1459 84%
c I 45.99 30 103 71 21707 780078 32980 29% 20 16893 1459 84%
c - 46.39 30 118 72 21707 788465 21992 30% 22 16893 1459 84%
c - 47.29 30 152 73 21714 810365 20880 31% 24 16893 1459 84%
c B 47.84 30 142 73 21720 820081 27432 29% 25 16893 1459 84%
c s 48.15 30 138 73 21722 828438 32970 29% 24 16893 1459 84%
c w 48.26 30 138 73 21722 828438 32959 29% 24 16893 1459 84%
c - 48.49 30 134 74 21722 832565 22666 28% 24 16893 1459 84%
c p 50.03 30 113 74 21736 855024 37908 24% 24 16893 1459 84%
c - 50.06 30 113 75 21736 855065 22492 24% 24 16893 1459 84%
c W 50.54 30 108 75 21737 861083 26248 24% 24 16893 1459 84%
c - 51.59 30 95 76 21738 877865 24695 21% 23 16893 1459 84%
c - 53.68 30 80 77 21749 900966 27522 19% 22 16893 1459 84%
c O 53.86 30 79 77 21751 903085 29097 19% 22 16893 1459 84%
c - 55.70 30 68 78 21759 924368 26596 17% 20 16893 1459 84%
c B 57.50 30 58 78 21768 946087 41489 15% 20 16893 1459 84%
c - 57.60 30 58 79 21768 948070 26945 15% 20 16893 1459 84%
c p 57.74 30 57 79 21769 950026 28490 15% 20 16893 1459 84%
c - 58.89 30 51 80 21770 972070 28342 14% 20 16893 1459 84%
c W 59.97 30 47 80 21770 990088 41309 13% 20 16893 1459 84%
c 
c  seconds  reductions        redundant   irredundant
c         MB      restarts           trail      variables
c          level       conflicts         glue        remaining
c 
c - 60.44 30 45 81 21770 996370 31694 13% 20 16893 1459 84%
c - 62.35 30 40 82 21784 1020971 31723 12% 19 16893 1459 84%
c ] 62.49 30 39 82 21784 1023015 33132 12% 19 16893 1459 84%
c { 62.49 30 14 82 21784 1023015 33132  9% 10 16893 1459 84%
c # 62.93 30 14 82 22317 1035090 42385  9% 10 16893 1459 84%
c - 63.36 31 14 83 22801 1045871 29749  9% 10 16893 1459 84%
c p 63.62 31 14 83 22944 1050026 32797  9% 10 16893 1459 84%
c - 64.77 31 15 84 24090 1071072 31089  9% 10 16893 1459 84%
c B 65.34 31 15 84 24787 1081092 38739  9% 10 16893 1459 84%
c - 65.94 32 16 85 25299 1096572 33478  9% 10 16893 1459 84%
c - 67.40 38 17 86 26723 1122372 34834  9% 10 16893 1459 84%
c W 67.71 38 17 86 27029 1128094 39221  9% 10 16893 1459 84%
c - 69.19 45 17 87 28037 1148472 38062  9% 10 16893 1459 84%
c p 69.76 45 17 87 28686 1155028 42696  9% 10 16893 1459 84%
c - 71.66 38 18 88 29965 1174872 42505  9% 10 16893 1459 84%
c F 71.73 38 18 88 30015 1176097 43440  9% 10 16893 1459 84%
c - 73.51 46 17 89 31797 1201573 43287  9% 10 16893 1459 84%
c B 75.41 46 18 89 33234 1225100 60340  9% 10 16893 1459 84%
c - 75.63 38 18 90 33476 1228573 40518  9% 10 16893 1459 84%
c s 75.72 38 18 90 33476 1228573 40150  9% 10 16893 1459 84%
c 
c  seconds  reductions         redundant   irredundant
c         MB      restarts            trail      variables
c          level        conflicts         glue        remaining
c 
c w 76.01 38 18 90 33476 1228573 40137  9% 10 16893 1459 84%
c - 78.24 46 18 91 35658 1255873 44058  9% 10 16893 1459 84%
c p 78.90 46 18 91 36369 1265028 50951  9% 10 16893 1459 84%
c W 79.90 46 19 91 37046 1275102 58137  9% 10 16893 1459 84%
c - 80.23 38 18 92 37488 1283475 43069  9% 10 16893 1459 84%
c - 81.74 41 16 93 38714 1311375 39790  9% 10 16893 1459 84%
c # 82.77 41 16 93 39334 1326103 50948  9% 10 16893 1459 84%
c - 83.35 41 15 94 39914 1339575 40069  9% 10 16893 1459 84%
c - 85.52 41 14 95 41241 1368075 41640  9% 10 16893 1459 84%
c B 86.22 41 14 95 41809 1378104 49384  9% 10 16893 1459 84%
c p 86.42 41 14 95 41898 1380028 50865  9% 10 16893 1459 84%
c - 88.14 48 13 96 43079 1396875 41511  9% 10 16893 1459 84%
c i 89.92 48 13 96 43703 1411097 52446  9% 9 16893 1458 84%
c s 90.02 48 13 96 43703 1411097 52070  9% 9 16893 1458 84%
c w 90.24 48 13 96 43703 1411097 52060  9% 9 16892 1458 84%
c - 90.92 48 12 97 44635 1425975 45700  9% 10 16852 1458 84%
c W 91.24 48 12 97 44954 1431105 49800  9% 10 16852 1458 84%
c - 93.32 48 12 98 46303 1455377 43425  9% 9 16852 1458 84%
c - 96.76 48 11 99 48802 1485079 43209  9% 10 16852 1458 84%
c F 96.77 48 11 99 48802 1485106 43229  9% 10 16852 1458 84%
c 
c  seconds  reductions         redundant   irredundant
c         MB      restarts            trail      variables
c          level        conflicts         glue        remaining
c 
c p 97.43 48 11 99 49525 1500029 54747  9% 10 16852 1457 84%
c s 97.67 48 11 99 49727 1502900 56459  9% 10 16852 1457 84%
c w 97.80 48 11 99 49727 1502900 56447  9% 10 16849 1457 84%
c - 98.69 48 11 100 50393 1515081 44324  9% 9 16812 1457 84%
c B 101.23 48 11 100 51809 1540108 63159  9% 9 16812 1457 84%
c - 101.58 26 11 101 52080 1545382 43595  9% 9 16812 1457 84%
c i 102.67 26 11 101 52875 1561668 55765  9% 9 16812 1456 84%
c - 103.34 34 12 102 54319 1575982 44583  9% 9 16772 1456 84%
c W 104.45 34 13 102 55366 1596111 60146  9% 9 16772 1456 84%
c s 104.85 34 13 102 55555 1601696 63753  9% 9 16772 1456 84%
c w 105.00 34 13 102 55555 1601696 63733  9% 9 16772 1455 84%
c t 105.00 34 13 102 55555 1601696 63730  9% 9 16772 1455 84%
c - 105.37 42 14 103 55878 1606882 46497  9% 9 16733 1455 84%
c p 107.04 42 15 103 57139 1625030 60097  9% 9 16733 1455 84%
c - 108.08 42 15 104 58154 1638084 45427  9% 9 16733 1455 84%
c # 109.55 42 16 104 59338 1653112 57020  9% 9 16733 1455 84%
c - 110.23 42 15 105 59905 1669585 47986  9% 9 16733 1455 84%
c - 112.21 34 14 106 62041 1701388 48189  9% 9 16733 1455 84%
c s 112.83 34 13 106 62366 1707405 52429  9% 9 16733 1455 84%
c w 112.98 34 13 106 62366 1707405 52413  9% 9 16733 1455 84%
c 
c  seconds    reductions         redundant  irredundant
c          MB       restarts            trail     variables
c           level         conflicts         glue       remaining
c 
c B 113.34 34 13 106 62505 1711114 55335  9% 9 16733 1455 84%
c - 114.32 42 14 107 63611 1733488 51737  9% 9 16733 1455 84%
c p 115.74 42 15 107 64756 1755031 68947  9% 9 16733 1455 84%
c - 116.58 43 16 108 65317 1765888 50789  9% 9 16733 1455 84%
c W 116.86 43 16 108 65527 1770115 54000  9% 9 16733 1455 84%
c - 119.15 43 16 109 67350 1798588 50444  9% 9 16733 1455 84%
c F 122.08 43 17 109 69308 1830117 74496  9% 9 16733 1455 84%
c - 122.16 43 17 110 69433 1831588 52852  9% 9 16733 1455 84%
c - 124.13 34 15 111 71726 1864889 50740  9% 9 16733 1455 84%
c p 125.70 34 14 111 73208 1890032 71198  9% 9 16733 1455 84%
c B 125.82 34 14 111 73392 1891119 72058  9% 9 16733 1455 84%
c - 126.25 42 14 112 73674 1898491 49227  9% 9 16733 1455 84%
c - 128.23 51 15 113 75381 1932391 49449  9% 9 16733 1455 84%
c W 130.02 51 15 113 76583 1953121 65503  9% 9 16733 1455 84%
c - 130.70 51 15 114 77560 1966591 51905  9% 9 16733 1455 84%
c - 133.51 51 13 115 80414 2001093 52470  9% 9 16733 1455 84%
c # 134.78 51 13 115 81682 2016123 63837  9% 9 16733 1455 84%
c p 135.47 51 13 115 82949 2030035 74242 10% 9 16733 1455 84%
c - 135.85 51 13 116 83275 2035893 49750 10% 9 16733 1455 84%
c } 136.74 51 12 116 83964 2047017 58432  9% 9 16733 1455 84%
c 
c  seconds    reductions         redundant   irredundant
c          MB       restarts            trail      variables
c           level         conflicts         glue        remaining
c 
c [ 136.74 51 39 116 83964 2047017 58432 12% 19 16733 1455 84%
c - 138.97 51 36 117 83975 2070995 48014 12% 18 16733 1455 84%
c I 139.72 51 34 117 83979 2080124 54378 12% 17 16733 1455 84%
c - 140.88 51 95 118 83982 2106397 43234 21% 20 16733 1455 84%
c - 143.14 51 106 119 83999 2142097 41454 26% 19 16733 1455 84%
c B 143.28 51 106 119 84002 2145126 43468 26% 19 16733 1455 84%
c p 144.76 51 93 119 84012 2175036 65925 24% 19 16733 1454 84%
c s 144.83 51 93 119 84012 2175036 65094 24% 19 16733 1454 84%
c w 145.28 51 93 119 84012 2175036 65088 24% 19 16732 1454 84%
c - 145.60 34 91 120 84012 2178099 44671 23% 19 16694 1454 84%
c W 148.34 34 71 120 84013 2211129 67952 19% 18 16694 1454 84%
c - 148.57 41 69 121 84013 2214400 43976 19% 17 16694 1454 84%
c - 152.18 41 55 122 84014 2251002 46808 16% 18 16694 1454 84%
c O 154.69 41 47 122 84014 2278131 64404 15% 17 16694 1454 84%
c i 156.13 41 45 122 84014 2286056 69255 14% 17 16694 1453 84%
c - 156.22 41 45 123 84015 2287902 24397 14% 17 16655 1453 84%
c s 156.54 41 43 123 84015 2294758 29037 14% 17 16655 1453 84%
c w 156.64 41 43 123 84015 2294758 29033 14% 17 16655 1453 84%
c e 156.66 41 43 123 84015 2294758 29033 14% 17 16667 1452 84%
c s 156.68 41 43 123 84015 2294758 28942 14% 17 16664 1452 84%
c 
c  seconds     reductions         redundant   irredundant
c          MB        restarts            trail      variables
c            level         conflicts         glue        remaining
c 
c p 157.99 41 102 123 84015 2325040 48758 31% 17 16664 1452 84%
c - 158.02 41 102 124 84015 2325103 35359 31% 17 16664 1452 84%
c B 159.36 41 139 124 84015 2346132 49835 44% 16 16664 1452 84%
c - 160.22 41 160 125 84015 2362604 39966 50% 16 16664 1452 84%
c - 163.42 41 196 126 84015 2400406 41515 59% 17 16664 1452 84%
c W 164.52 41 206 126 84015 2415134 50780 62% 17 16664 1452 84%
c - 167.18 41 168 127 84028 2438507 41672 51% 17 16664 1452 84%
c i 168.95 41 144 127 84034 2456186 52317 44% 17 16664 1451 84%
c s 169.10 41 144 127 84034 2456186 51578 44% 17 16664 1451 84%
c w 169.29 41 144 127 84034 2456186 51522 44% 17 16657 1451 84%
c - 170.26 41 138 128 84045 2476907 40704 43% 18 16622 1451 84%
c p 170.42 41 141 128 84045 2480043 42799 44% 18 16622 1451 84%
c I 170.61 41 138 128 84046 2485135 46397 44% 18 16622 1451 84%
c - 172.21 41 129 129 84056 2515609 40733 38% 20 16622 1451 84%
c - 174.31 50 125 130 84075 2554609 42993 36% 20 16622 1451 84%
c B 174.40 50 124 130 84075 2556136 44133 36% 20 16622 1451 84%
c s 176.48 50 111 130 84078 2589872 67111 33% 21 16622 1451 84%
c w 176.70 50 111 130 84078 2589872 67104 33% 21 16622 1451 84%
c - 177.03 59 107 131 84078 2593909 44648 32% 21 16622 1451 84%
c W 179.35 59 112 131 84086 2628139 67145 31% 22 16622 1451 84%
c 
c  seconds     reductions         redundant   irredundant
c          MB        restarts            trail      variables
c            level         conflicts         glue        remaining
c 
c - 179.65 35 111 132 84090 2633509 42842 31% 22 16622 1451 84%
c p 180.01 35 108 132 84092 2640043 47582 31% 21 16622 1451 84%
c - 181.76 42 102 133 84108 2673409 43005 31% 20 16622 1451 84%
c i 183.49 42 100 133 84109 2696437 59403 32% 19 16622 1450 84%
c O 183.82 42 105 133 84112 2701140 62918 33% 20 16622 1450 84%
c - 184.40 42 95 134 84119 2713613 38970 30% 19 16581 1450 84%
c s 185.68 42 84 134 84124 2730596 50824 27% 19 16581 1450 84%
c w 185.89 42 84 134 84124 2730596 50819 27% 19 16581 1450 84%
c - 188.14 42 71 135 84138 2754116 44982 23% 18 16581 1450 84%
c B 189.93 42 61 135 84140 2775145 59468 21% 18 16581 1450 84%
c - 191.14 51 75 136 84141 2794918 46706 22% 18 16581 1450 84%
c p 191.78 51 72 136 84141 2805043 53788 21% 19 16581 1450 84%
c - 194.74 51 92 137 84142 2836018 46505 28% 20 16581 1450 84%
c W 196.43 51 94 137 84142 2850146 55200 31% 19 16581 1450 84%
c i 197.89 51 85 137 84142 2862026 62789 28% 19 16581 1449 84%
c - 198.55 51 104 138 84142 2877418 36790 33% 19 16541 1449 84%
c s 198.68 51 105 138 84142 2878244 37296 33% 19 16512 1449 84%
c w 198.84 51 105 138 84142 2878244 37291 33% 19 16512 1449 84%
c e 198.86 51 105 138 84142 2878244 34955 33% 19 16502 1448 84%
c s 198.94 51 105 138 84142 2878244 34928 33% 19 16502 1448 84%
c 
c  seconds     reductions         redundant   irredundant
c          MB        restarts            trail      variables
c            level         conflicts         glue        remaining
c 
c - 200.92 51 115 139 84163 2919119 43542 36% 18 16502 1448 84%
c I 201.42 51 115 139 84167 2926148 47884 37% 18 16502 1448 84%
c - 203.33 51 136 140 84173 2961120 45138 34% 21 16502 1448 84%
c p 204.07 51 123 140 84182 2975044 55882 31% 21 16502 1448 84%
c B 206.28 51 109 140 84195 3003150 76656 30% 21 16502 1448 84%
c - 206.32 51 109 141 84195 3003421 45703 30% 21 16502 1448 84%
c s 208.29 51 96 141 84204 3032710 65483 26% 20 16502 1448 84%
c w 208.51 51 96 141 84204 3032710 65466 26% 20 16502 1448 84%
c - 209.52 51 93 142 84205 3046021 43496 25% 21 16502 1448 84%
c W 211.31 51 115 142 84209 3081151 66842 32% 20 16502 1448 84%
c - 211.67 51 110 143 84213 3088922 41822 31% 20 16502 1448 84%
c - 214.39 51 81 144 84234 3132122 44011 25% 19 16502 1448 84%
c p 215.58 51 71 144 84236 3150046 56787 22% 18 16502 1448 84%
c O 216.34 51 66 144 84238 3160152 63606 21% 18 16502 1448 84%
c - 217.84 51 59 145 84247 3175622 44874 19% 17 16502 1448 84%
c i 220.07 51 54 145 84251 3188472 53333 18% 17 16502 1447 84%
c s 221.04 51 54 145 84254 3194195 56370 19% 17 16502 1447 84%
c w 221.27 51 54 145 84254 3194195 56356 19% 17 16498 1447 84%
c e 221.31 53 54 145 84254 3194195 55578 19% 17 16476 1446 84%
c s 221.44 53 54 145 84254 3194195 55434 19% 17 16431 1446 84%
c 
c  seconds    reductions         redundant   irredundant
c          MB       restarts            trail      variables
c           level         conflicts         glue        remaining
c 
c e 221.45 53 54 145 84254 3194195 55434 19% 17 16441 1445 84%
c - 222.75 53 65 146 84266 3219423 47858 23% 17 16441 1445 84%
c i 224.09 53 76 146 84267 3237205 59254 26% 17 16441 1444 84%
c B 224.23 53 78 146 84267 3240155 61244 27% 17 16441 1444 84%
c - 225.73 53 98 147 84268 3263525 47587 31% 17 16381 1444 84%
c - 229.37 53 92 148 84269 3307926 47237 28% 19 16381 1444 84%
c W 230.00 53 98 148 84269 3321157 55931 29% 19 16381 1444 84%
c p 230.39 53 94 148 84269 3330047 62470 27% 19 16381 1444 84%
c - 231.53 53 81 149 84270 3352627 45348 24% 19 16381 1444 84%
c s 232.42 53 76 149 84270 3362587 51970 22% 19 16358 1444 84%
c w 232.60 53 76 149 84270 3362587 51964 22% 19 16358 1444 84%
c - 234.96 53 94 150 84270 3397628 53759 25% 20 16358 1444 84%
c I 235.28 53 100 150 84270 3403158 57953 27% 20 16358 1444 84%
c - 237.84 53 122 151 84270 3442928 48393 28% 22 16358 1444 84%
c B 241.82 53 121 151 84271 3486159 79240 27% 23 16358 1444 84%
c - 241.94 53 124 152 84271 3488529 49432 27% 23 16358 1444 84%
c p 243.51 53 158 152 84271 3515047 68733 35% 22 16358 1444 84%
c - 244.85 53 143 153 84271 3534429 47947 33% 21 16358 1444 84%
c W 247.14 53 142 153 84271 3570164 72559 34% 19 16358 1444 84%
c - 248.15 53 147 154 84271 3580630 48362 36% 20 16358 1444 84%
c 
c  seconds     reductions         redundant   irredundant
c          MB        restarts            trail      variables
c            level         conflicts         glue        remaining
c 
c - 250.93 53 169 155 84271 3627133 45928 46% 21 16358 1444 84%
c O 253.98 53 178 155 84271 3655167 63498 49% 20 16358 1444 84%
c - 254.70 53 156 156 84271 3673934 47517 48% 19 16358 1444 84%
c p 256.67 53 128 156 84271 3705047 68678 45% 18 16358 1444 84%
c - 258.92 55 124 157 84271 3721037 53353 46% 18 16358 1444 84%
c B 259.99 55 122 157 84277 3741169 67364 46% 18 16358 1444 84%
c - 261.78 55 110 158 84288 3768438 53045 41% 18 16358 1444 84%
c - 265.45 55 110 159 84302 3816139 55421 38% 18 16358 1444 84%
c W 266.35 55 104 159 84309 3828170 63687 35% 18 16358 1444 84%
c - 268.63 55 88 160 84327 3864139 55151 29% 19 16358 1444 84%
c p 271.70 55 101 160 84334 3900048 79817 29% 22 16358 1444 84%
c - 272.64 55 105 161 84334 3912439 55040 29% 23 16358 1444 84%
c I 272.92 55 105 161 84334 3916172 57928 29% 23 16358 1444 84%
c - 279.48 60 96 162 84349 3961041 55843 25% 25 16358 1444 84%
c B 283.28 60 72 162 84365 4005173 86404 19% 23 16358 1444 84%
c - 283.51 60 81 163 84365 4009942 54098 21% 23 16358 1444 84%
c - 286.99 60 91 164 84387 4059143 53532 25% 22 16358 1444 84%
c ] 290.39 60 82 164 84396 4095017 77582 23% 21 16358 1444 84%
c { 290.39 60 12 164 84396 4095017 77582  9% 9 16358 1444 84%
c B 290.40 60 12 164 84419 4095175 77720  9% 9 16358 1444 84%
c 
c  seconds    reductions         redundant   irredundant
c          MB       restarts            trail      variables
c           level         conflicts         glue        remaining
c 
c p 290.91 60 13 164 85636 4100049 81692  9% 10 16358 1444 84%
c - 291.58 60 13 165 87598 4108643 55697  9% 10 16358 1444 84%
c - 296.03 60 15 166 98775 4158444 59753  9% 12 16358 1444 84%
c W 300.05 60 16 166 103979 4186177 80911  9% 13 16358 1444 84%
c - 301.85 41 17 167 104825 4208546 63911 10% 12 16358 1444 84%
c - 305.57 41 18 168 105571 4258946 65001 10% 12 16358 1444 84%
c s 305.72 42 18 168 105571 4258946 64522 10% 12 16332 1444 84%
c w 306.49 42 18 168 105571 4258946 64495 10% 12 16332 1444 84%
c e 306.50 42 18 168 105571 4258946 63825 10% 12 16320 1442 83%
c s 306.66 42 18 168 105571 4258946 63623 10% 12 16318 1442 83%
c F 308.40 42 18 168 105908 4278178 78490 10% 11 16318 1442 83%
c p 310.02 42 17 168 106740 4305049 98747 10% 11 16318 1442 83%
c - 310.49 54 16 169 106804 4309648 70829 10% 11 16318 1442 83%
c i 312.92 54 15 169 107297 4333753 89228 10% 11 16318 1441 83%
c - 315.04 42 16 170 108356 4360651 71087 10% 10 16277 1441 83%
c B 315.85 42 16 170 108801 4371181 79300 10% 10 16277 1441 83%
c - 319.17 56 16 171 110860 4411953 78817 10% 10 16277 1441 83%
c s 321.87 56 15 171 112298 4440963 100207 10% 10 16256 1441 83%
c v 321.93 56 15 171 112298 4440963 100207 10% 10 16247 1441 83%
c w 322.15 56 15 171 112298 4440963 100191 10% 10 16247 1441 83%
c 
c  seconds    reductions          redundant    irredundant
c          MB       restarts              trail      variables
c           level          conflicts          glue        remaining
c 
c t 322.16 56 15 171 112298 4440963 100190 10% 10 16247 1441 83%
c e 322.17 56 15 171 112298 4440963 95268 10% 10 16102 1431 83%
c s 322.31 56 15 171 112298 4440963 94925 10% 10 16102 1431 83%
c - 324.05 42 14 172 113277 4463553 76174 11% 10 16102 1431 83%
c i 324.06 42 14 172 113277 4463680 76253 11% 10 16102 1430 83%
c W 324.27 55 14 172 113395 4465182 77380 11% 10 16072 1430 83%
c i 325.72 55 13 172 113915 4479785 88047 11% 10 16072 1429 83%
c - 329.27 55 12 173 115924 4515453 69953 10% 10 16043 1429 83%
c i 330.39 55 12 173 116448 4524778 77251 10% 9 16043 1428 83%
c i 331.87 55 12 173 117341 4542379 90133 10% 10 16043 1427 83%
c # 333.20 55 12 173 118088 4560183 104014 11% 9 16043 1427 83%
c i 333.43 55 12 173 118111 4561968 105379 11% 9 16043 1426 83%
c i 333.71 55 11 173 118280 4564747 107414 11% 9 16043 1425 82%
c - 333.97 55 11 174 118401 4567654 59109 11% 9 15932 1425 82%
c i 334.55 55 11 174 118573 4573844 63698 11% 9 15932 1424 82%
c i 334.88 55 11 174 118733 4577000 66098 11% 9 15932 1423 82%
c i 335.27 55 11 174 119031 4581207 69126 11% 9 15932 1422 82%
c i 335.48 55 11 174 119119 4583003 70402 11% 9 15932 1421 82%
c i 335.78 55 11 174 119197 4585612 72304 11% 9 15932 1420 82%
c i 336.05 55 11 174 119360 4588138 74171 11% 9 15932 1419 82%
c 
c  seconds    reductions          redundant  irredundant
c          MB       restarts             trail     variables
c           level          conflicts         glue       remaining
c 
c i 336.25 55 11 174 119373 4589870 75494 11% 9 15932 1418 82%
c i 337.37 55 11 174 119698 4597266 80729 11% 9 15932 1396 81%
c i 337.40 55 11 174 119698 4597526 80899 11% 9 15932 1395 81%
c i 337.43 55 11 174 119698 4597716 81015 11% 9 15932 1394 81%
c i 337.45 55 11 174 119698 4597889 81128 11% 9 15932 1393 81%
c i 337.59 55 11 174 119745 4598852 81671 11% 9 15932 1369 79%
c i 337.59 55 11 174 119745 4598874 81685 11% 9 15932 1368 79%
c i 337.59 55 11 174 119745 4598911 81694 11% 9 15932 1367 79%
c i 337.60 55 11 174 119745 4599028 81736 11% 9 15932 1343 78%
c i 337.60 55 11 174 119745 4599032 81737 11% 9 15932 1342 78%
c i 337.60 55 11 174 119745 4599046 81739 11% 9 15932 1319 76%
c } 337.60 55 11 174 119745 4599048 81739 11% 9 15932 1300 75%
c 0 337.60 55 11 174 119745 4599048 81739 11% 9 15932 1300 75%
c 
c --- [ result ] -------------------------------------------------------------
c 
s UNSATISFIABLE
c 
c --- [ run-time profiling ] -------------------------------------------------
c 
c process time taken by individual solving procedures
c (percentage relative to process time for solving)
c 
c       327.03   96.87% search
c       214.70   63.60% propagate
c       190.31   56.37% stable
c       135.63   40.18% unstable
c        73.75   21.84% analyze
c        21.93    6.49% bump
c        20.67    6.12% minimize
c        10.56    3.13% simplify
c         5.54    1.64% decide
c         4.99    1.48% vivify
c         3.37    1.00% reduce
c         2.54    0.75% collect
c         2.32    0.69% subsume
c         2.09    0.62% probe
c         1.09    0.32% walk
c         0.90    0.27% connect
c         0.38    0.11% elim
c         0.34    0.10% decompose
c         0.26    0.08% ternary
c         0.16    0.05% transred
c         0.14    0.04% restart
c         0.03    0.01% deduplicate
c         0.01    0.00% backward
c         0.01    0.00% parse
c         0.01    0.00% copy
c         0.00    0.00% compact
c         0.00    0.00% lucky
c   =================================
c       337.59  100.00% solve
c 
c last line shows process time for solving
c (percentage relative to total process time)
c 
c --- [ statistics ] ---------------------------------------------------------
c 
c chronological:            180892         3.93 %  of conflicts
c conflicts:               4599048     13623.08    per second
c decisions:               4908839     14540.73    per second
c eliminated:                  279        16.15 %  of all variables
c fixed:                       147         8.51 %  of all variables
c learned:                 4577881        99.54 %  per conflict
c minimized:              28587613        12.28 %  learned literals
c propagations:           72262730         0.21 M  per second
c reduced:                 3115204        67.74 %  per conflict
c rephased:                     95     48411.03    interval
c restarts:                 119745        38.41    interval
c stabilizing:                   6        59.36 %  of conflicts
c substituted:                   2         0.12 %  of all variables
c subsumed:                1277938        13.87 %  of all clauses
c strengthened:             114661         1.24 %  of all clauses
c ternary:                      45        20.74 %  of resolved
c vivified:                   3374         0.04 %  of all clauses
c walked:                       30    153301.60    interval
c weakened:                   4999         2.54    average size
c 
c seconds are measured in process time for solving
c 
c --- [ resources ] ----------------------------------------------------------
c 
c total process time since initialization:       337.60    seconds
c total real time since initialization:          338.87    seconds
c maximum resident set size of process:           72.33    MB
c 
c --- [ shutting down ] ------------------------------------------------------
c 
c exit 20
